Traveling Salesman Problem/TSP_generados/Aleatorio1621106247_20.tsp
NAME: Aleatorio1621106247_20.tsp
COMMENT: Randomly generated scenario
TYPE: TSP
DIMENSION: 20
EDGE_WEIGHT_TYPE: ATT
NODE_COORD_SECTION
1 27.44 15.48
2 4.38 4.49
3 21.38 34.32
4 44.94 17.03
5 42.56 28.77
6 6.45 45.8
7 7.52 23.33
8 5.13 12.45
9 5.98 29.89
10 11.07 34.95
11 29.79 11.79
12 34.9 44.35
13 9.14 0.83
14 2.49 18.17
15 28.36 19.08
16 27.76 0.12
17 16.54 37.25
18 32.41 26.19
19 30.97 23.61
20 29.2 22.94
