Traveling Salesman Problem/TSP_generados/Aleatorio1621106247_20.opt.tour
NAME: Aleatorio1621106247_20.opt.tour
COMMENT: Optimal solution for Aleatorio1621106247_20 (181.15909048548738)
TYPE: TOUR
DIMENSION: 20
TOUR_SECTION
1 15 20 19 18 4 5 12 3 17 6 10 9 7 14 8 2 13 16 11
-1
EOF
